1276.97
0 62 1 69 36 60 70 37 20 15 57 52 4 0
0 47 21 54 11 49 63 43 2 68 51 67 0
0 58 39 25 55 18 32 23 41 64 71 29 48 73 0
0 65 66 7 35 13 27 45 30 75 0
0 14 59 53 8 46 5 6 44 17 0
0 28 61 74 19 38 31 9 72 12 26 34 0
0 22 42 56 24 50 10 40 3 16 33 0
